Optimal - objective value 1270.00000000
      5 x0_5                   1                      77
      8 x0_8                   1                      65
     17 x0_17                  1                      61
     21 x0_21                  1                      68
     22 x0_22                  1                      62
     25 x0_25                  1                       0
     31 x0_31                  1                      65
     48 x1_13                  1                      64
     49 x1_14                  1                      68
     51 x1_16                  1                      63
     53 x1_18                  1                       0
     59 x1_24                  1                      61
     61 x1_26                  1                      62
     63 x1_28                  1                       0
     64 x1_29                  1                      62
     71 x2_1                   1                    66.6
     73 x2_3                   1                    64.4
     80 x2_10                  1                    65.2
     81 x2_11                  1                    63.2
     82 x2_12                  1                    62.8
     89 x2_19                  1                    63.6
     90 x2_20                  1                    61.2
     93 x2_23                  1                    63.2
    102 x2_32                  1                    67.2
    104 x2_34                  1                       0
    105 x3_0                   1                      63
    107 x3_2                   1                      78
    109 x3_4                   1                      62
    111 x3_6                   1                      61
    112 x3_7                   1                      63
    114 x3_9                   1                      66
    120 x3_15                  1                      62
    132 x3_27                  1                      67
    135 x3_30                  1                      62
    138 x3_33                  1                      62
